Cars = 1..100;
Options = 1..5;
Classes = 1..19;
sequenceMinCapacity = [0, 0, 0, 0, 0];
sequenceMaxCapacity = [1, 2, 1, 2, 1];
sequenceSize = [2, 3, 3, 5, 5];
numOrdered = [7, 9, 4, 2, 6, 18, 6, 6, 1, 10, 2, 11, 5, 1, 1, 3, 3, 3, 2];
classHasOption = [| true, false, false, false, false
                  |false,  true,  true, false, false
                  |false, false, false,  true, false
                  |false,  true, false,  true,  true
                  |false, false,  true, false, false
                  |false,  true, false, false, false
                  |false,  true, false, false,  true
                  |false, false, false, false,  true
                  | true,  true, false,  true,  true
                  | true,  true, false, false, false
                  | true, false, false, false,  true
                  |false,  true, false,  true, false
                  |false, false,  true,  true, false
                  |false,  true,  true,  true, false
                  |false,  true,  true, false,  true
                  | true, false,  true, false, false
                  | true,  true,  true, false, false
                  | true,  true, false,  true, false
                  | true,  true,  true,  true, false|];
optionOrdering = [3, 5, 2, 1, 4];
